%%%mzn-stat: initTime=0.043918209
%%%mzn-stat: objective=131
%%%mzn-stat: nodes=1446
%%%mzn-stat: restarts=0
%%%mzn-stat: peakDepth=875
%%%mzn-stat: solveTime=0.410414192
%%%mzn-stat: variables=4165
%%%mzn-stat: propagators=3700
%%%mzn-stat: failures=209
%%%mzn-stat: propagations=236997
%%%mzn-stat: nogoods=209
%%%mzn-stat: AverageConflictSize=11.669856459330143
%%%mzn-stat: NumUnitNogoodsLearned=130
%%%mzn-stat: AverageLearnedNogoodLength=104.49282296650718
%%%mzn-stat: AverageBacktrackAmount=0
%%%mzn-stat: AverageLbd=14.052631578947368
%%%mzn-stat-end
maxleg = 131;
succ = array1d(1..150,[148, 138, 101, 107, 64, 17, 127, 120, 42, 70, 146, 31, 30, 142, 145, 81, 65, 7, 117, 13, 62, 124, 77, 37, 24, 115, 100, 10, 86, 74, 144, 73, 50, 89, 57, 84, 83, 95, 90, 5, 129, 11, 121, 54, 135, 80, 18, 29, 58, 40, 16, 9, 150, 52, 97, 51, 113, 126, 56, 119, 3, 125, 45, 147, 43, 96, 139, 46, 114, 112, 149, 98, 102, 137, 28, 21, 76, 38, 136, 131, 2, 99, 128, 141, 105, 72, 34, 122, 23, 32, 93, 104, 6, 53, 94, 69, 116, 133, 134, 49, 106, 132, 140, 60, 91, 14, 79, 63, 123, 68, 4, 47, 55, 85, 110, 88, 33, 82, 26, 61, 75, 66, 71, 1, 25, 35, 20, 39, 22, 109, 15, 36, 12, 48, 19, 8, 41, 111, 87, 27, 118, 78, 67, 59, 103, 143, 92, 44, 108, 130]);
% time elapsed: 7.20 s
----------
==========
% time elapsed: 7.20 s
%%%mzn-stat: initTime=0.043918209
%%%mzn-stat: objective=131
%%%mzn-stat: nodes=1446
%%%mzn-stat: restarts=0
%%%mzn-stat: peakDepth=875
%%%mzn-stat: solveTime=0.410760407
%%%mzn-stat: variables=4165
%%%mzn-stat: propagators=3700
%%%mzn-stat: failures=209
%%%mzn-stat: propagations=236997
%%%mzn-stat: nogoods=209
%%%mzn-stat: AverageConflictSize=11.669856459330143
%%%mzn-stat: NumUnitNogoodsLearned=130
%%%mzn-stat: AverageLearnedNogoodLength=104.49282296650718
%%%mzn-stat: AverageBacktrackAmount=0
%%%mzn-stat: AverageLbd=14.052631578947368
%%%mzn-stat-end
